# 86917
param n := 25;
param s := 1;
set E :=  (0,9) (0,15) (1,3) (1,7) (1,23) (2,20) (3,9) (4,18) (4,19) (4,22) (5,20) (6,7) (6,23) (7,13) (8,24) (9,12) (9,14) (9,16) (9,23) (10,21) (11,13) (12,20) (12,22) (13,17) (14,18) (15,19) (16,18) (16,24) (17,18) (21,22) (23,24);
